(set-option :print-success false)
(set-logic QF_UF)
(declare-sort x121 0)
(declare-sort x69 0)
(declare-fun x61 () x69)
(declare-fun x152 () x69)
(declare-fun x49 () x69)
(declare-fun x81 (x69 x69) x69)
(declare-fun x88 () x69)
(declare-fun x7 () x69)
(declare-fun x57 (x69 x69) x69)
(assert (and (and (not (= x61 x49)) (and (and (not (= x61 x88)) (and (and (and (not (= x7 x61)) (and (and (not (= x49 x7)) (not (= x7 x88))) (not (= x152 x7)))) (not (= x49 x88))) (not (= x88 x152)))) (not (= x49 x152)))) (not (= x61 x152))))
(assert (and (= x61 (x57 x88 x152)) (and (= x49 (x57 x152 x152)) (and (= x88 (x57 x49 x152)) (= (x57 x61 x61) x7)))))
(assert (let ((x47 (x57 x88 x88)) (x73 (x57 x7 x7)) (x124 (x57 x61 x61)) (x144 (x57 x152 x152)) (x113 (x57 x49 x49))) (let ((x158 (= x113 x49)) (x133 (= x61 x124)) (x14 (= x88 x47)) (x155 (= x144 x152)) (x129 (= x73 x7))) (let ((x122 (or (or (= x144 x49) (or (or (= x49 x47) (= x49 x73)) x158)) (= x124 x49))) (x109 (or (or (or (or (= x73 x152) (= x47 x152)) (= x152 x113)) x155) (= x152 x124))) (x28 (or (= x124 x7) (or (= x7 x144) (or (or x129 (= x7 x47)) (= x113 x7))))) (x142 (or (or (or (or (= x47 x61) (= x73 x61)) (= x113 x61)) (= x61 x144)) x133)) (x68 (or (= x88 x124) (or (= x88 x144) (or (or x14 (= x73 x88)) (= x113 x88)))))) (and (and (and (and (and (or x142 (not (= (x57 x88 x61) x88))) (and (and (or x122 (not (= (x57 x88 x49) x88))) (and (or x68 (not x14)) (or x28 (not (= x88 (x57 x88 x7)))))) (or x109 (not (= (x57 x88 x152) x88))))) (and (and (or (not (= (x57 x7 x152) x7)) x109) (and (and (or x28 (not x129)) (or (not (= (x57 x7 x88) x7)) x68)) (or x122 (not (= x7 (x57 x7 x49)))))) (or x142 (not (= (x57 x7 x61) x7))))) (and (and (or x109 (not (= (x57 x49 x152) x49))) (and (and (or (not (= (x57 x49 x7) x49)) x28) (or x68 (not (= (x57 x49 x88) x49)))) (or (not x158) x122))) (or (not (= x49 (x57 x49 x61))) x142))) (and (or x142 (not (= x152 (x57 x152 x61)))) (and (and (and (or x28 (not (= x152 (x57 x152 x7)))) (or (not (= x152 (x57 x152 x88))) x68)) (or x122 (not (= x152 (x57 x152 x49))))) (or x109 (not x155))))) (and (or x142 (not x133)) (and (or x109 (not (= x61 (x57 x61 x152)))) (and (or (not (= (x57 x61 x49) x61)) x122) (and (or x28 (not (= (x57 x61 x7) x61))) (or x68 (not (= (x57 x61 x88) x61))))))))))))
(assert (not (and (and (and (= x61 (x57 x61 x49)) (and (= (x57 x61 x88) x88) (and (and (and (= x49 (x57 x152 x152)) (and (= (x57 x152 x49) x152) (and (= x7 (x57 x152 x88)) (and (and (= (x57 x49 x61) x61) (and (= (x57 x49 x152) x88) (and (and (and (= (x57 x49 x7) x152) (and (= (x57 x88 x61) x49) (and (and (and (= x152 (x57 x88 x88)) (and (and (and (and (= x49 (x57 x7 x49)) (and (= (x57 x7 x7) x88) (= (x57 x7 x88) x61))) (= (x57 x7 x152) x7)) (= (x57 x7 x61) x152)) (= (x57 x88 x7) x7))) (= (x57 x88 x49) x88)) (= (x57 x88 x152) x61)))) (= x49 (x57 x49 x88))) (= (x57 x49 x49) x7)))) (= x61 (x57 x152 x7)))))) (= x88 (x57 x152 x61))) (= x49 (x57 x61 x7))))) (= (x57 x61 x152) x152)) (= (x57 x61 x61) x7))))
(assert (and (and (and (or (or (= x152 (x57 x49 (x57 x49 x152))) (or (= (x57 x49 (x57 x49 x49)) x49) (or (= (x57 x49 (x57 x49 x88)) x88) (= (x57 x49 (x57 x49 x7)) x7)))) (= x61 (x57 x49 (x57 x49 x61)))) (and (or (or (= (x57 x7 (x57 x7 x152)) x152) (or (= x49 (x57 x7 (x57 x7 x49))) (or (= (x57 x7 (x57 x7 x88)) x88) (= (x57 x7 (x57 x7 x7)) x7)))) (= x61 (x57 x7 (x57 x7 x61)))) (or (or (= x152 (x57 x88 (x57 x88 x152))) (or (or (= (x57 x88 (x57 x88 x88)) x88) (= x7 (x57 x88 (x57 x88 x7)))) (= x49 (x57 x88 (x57 x88 x49))))) (= x61 (x57 x88 (x57 x88 x61)))))) (or (= x61 (x57 x152 (x57 x152 x61))) (or (or (or (= x88 (x57 x152 (x57 x152 x88))) (= x7 (x57 x152 (x57 x152 x7)))) (= x49 (x57 x152 (x57 x152 x49)))) (= (x57 x152 (x57 x152 x152)) x152)))) (or (or (or (= (x57 x61 (x57 x61 x49)) x49) (or (= x88 (x57 x61 (x57 x61 x88))) (= x7 (x57 x61 (x57 x61 x7))))) (= x152 (x57 x61 (x57 x61 x152)))) (= (x57 x61 (x57 x61 x61)) x61))))
(assert (let ((x133 (x57 x49 x152)) (x142 (x57 x152 x88)) (x132 (x57 x61 x152)) (x158 (x57 x88 x152)) (x68 (= (x57 x49 x49) x49)) (x85 (x57 x88 x61)) (x129 (= x7 (x57 x7 x7))) (x124 (x57 x7 x49)) (x12 (x57 x152 x61)) (x28 (x57 x49 x88)) (x109 (x57 x7 x152)) (x17 (x57 x61 x88)) (x55 (x57 x61 x7)) (x11 (x57 x49 x61)) (x47 (x57 x7 x88)) (x155 (x57 x152 x49)) (x117 (x57 x7 x61)) (x144 (x57 x49 x7)) (x24 (= (x57 x61 x61) x61)) (x73 (x57 x88 x7)) (x82 (x57 x61 x49)) (x113 (= x88 (x57 x88 x88))) (x54 (= (x57 x152 x152) x152)) (x122 (x57 x152 x7)) (x14 (x57 x88 x49))) (or (or (or (or (and (= x49 x11) (= x82 x49)) (or (or (or (and (= x14 x49) (= x28 x49)) (and (= x49 x124) (= x144 x49))) (and x68 x68)) (and (= x49 x155) (= x133 x49)))) (or (or (and (= x55 x7) (= x7 x117)) (or (and (= x109 x7) (= x122 x7)) (or (and (= x7 x144) (= x124 x7)) (or (and x129 x129) (and (= x73 x7) (= x7 x47)))))) (or (or (or (and (= x88 x28) (= x88 x14)) (or (and (= x88 x73) (= x47 x88)) (and x113 x113))) (and (= x88 x142) (= x88 x158))) (and (= x88 x85) (= x17 x88))))) (or (and (= x132 x152) (= x12 x152)) (or (and x54 x54) (or (or (and (= x122 x152) (= x152 x109)) (and (= x158 x152) (= x142 x152))) (and (= x155 x152) (= x152 x133)))))) (or (and x24 x24) (or (and (= x132 x61) (= x61 x12)) (or (or (and (= x61 x55) (= x61 x117)) (and (= x61 x85) (= x61 x17))) (and (= x11 x61) (= x61 x82))))))))
(assert (let ((x142 (x57 x49 x88)) (x117 (x57 x152 x49)) (x14 (x57 x88 x49)) (x55 (x57 x152 x88)) (x85 (x57 x152 x61)) (x144 (x57 x7 x61)) (x122 (x57 x88 x61)) (x158 (x57 x49 x49)) (x82 (x57 x61 x7)) (x109 (x57 x49 x7)) (x113 (x57 x7 x152)) (x155 (x57 x49 x152)) (x17 (x57 x152 x152)) (x11 (x57 x61 x88)) (x54 (x57 x152 x7)) (x12 (x57 x61 x152)) (x133 (x57 x49 x61)) (x129 (x57 x7 x7)) (x124 (x57 x88 x7)) (x68 (x57 x88 x152)) (x132 (x57 x61 x49)) (x47 (x57 x7 x49)) (x28 (x57 x88 x88)) (x73 (x57 x7 x88)) (x24 (x57 x61 x61))) (and (and (and (and (and (and (and (and (or (or (or (= x129 x49) (or (= x129 x88) (= x129 x7))) (= x152 x129)) (= x129 x61)) (or (= x73 x61) (or (= x152 x73) (or (= x73 x49) (or (= x73 x7) (= x88 x73)))))) (or (or (or (= x47 x49) (or (= x47 x88) (= x7 x47))) (= x152 x47)) (= x61 x47))) (or (or (or (= x49 x113) (or (= x113 x7) (= x113 x88))) (= x113 x152)) (= x113 x61))) (or (= x144 x61) (or (or (= x49 x144) (or (= x88 x144) (= x7 x144))) (= x144 x152)))) (and (or (= x122 x61) (or (= x152 x122) (or (or (= x122 x88) (= x122 x7)) (= x49 x122)))) (and (and (or (or (= x152 x14) (or (= x49 x14) (or (= x14 x88) (= x7 x14)))) (= x61 x14)) (and (or (= x61 x28) (or (= x152 x28) (or (= x49 x28) (or (= x28 x7) (= x28 x88))))) (or (= x124 x61) (or (= x124 x152) (or (= x124 x49) (or (= x124 x7) (= x88 x124))))))) (or (or (= x152 x68) (or (= x49 x68) (or (= x88 x68) (= x7 x68)))) (= x68 x61))))) (and (or (or (or (= x49 x133) (or (= x7 x133) (= x133 x88))) (= x133 x152)) (= x61 x133)) (and (or (= x155 x61) (or (= x152 x155) (or (= x155 x49) (or (= x88 x155) (= x7 x155))))) (and (or (or (= x152 x158) (or (or (= x158 x88) (= x7 x158)) (= x158 x49))) (= x158 x61)) (and (or (or (or (or (= x142 x88) (= x142 x7)) (= x49 x142)) (= x142 x152)) (= x61 x142)) (or (= x61 x109) (or (or (= x109 x49) (or (= x88 x109) (= x109 x7))) (= x152 x109)))))))) (and (and (and (and (or (or (= x152 x55) (or (= x49 x55) (or (= x55 x7) (= x88 x55)))) (= x55 x61)) (or (or (= x152 x54) (or (= x54 x49) (or (= x54 x7) (= x54 x88)))) (= x61 x54))) (or (= x117 x61) (or (= x117 x152) (or (or (= x117 x88) (= x7 x117)) (= x49 x117))))) (or (= x17 x61) (or (or (or (= x17 x88) (= x17 x7)) (= x49 x17)) (= x17 x152)))) (or (= x85 x61) (or (or (= x49 x85) (or (= x85 x7) (= x88 x85))) (= x152 x85))))) (and (and (and (or (or (or (= x49 x132) (or (= x88 x132) (= x7 x132))) (= x152 x132)) (= x61 x132)) (and (or (or (= x152 x82) (or (= x82 x49) (or (= x82 x7) (= x82 x88)))) (= x61 x82)) (or (or (= x152 x11) (or (or (= x11 x7) (= x88 x11)) (= x49 x11))) (= x61 x11)))) (or (= x12 x61) (or (= x152 x12) (or (= x12 x49) (or (= x88 x12) (= x7 x12)))))) (or (= x24 x61) (or (or (or (= x88 x24) (= x24 x7)) (= x24 x49)) (= x152 x24)))))))
(assert (let ((x113 (x57 x152 x152)) (x144 (x57 x61 x61)) (x47 (x57 x49 x49)) (x73 (x57 x88 x88)) (x129 (x57 x7 x7))) (or (and (not (= x61 x144)) (and (not (= x113 x61)) (and (and (not (= x129 x61)) (not (= x61 x73))) (not (= x61 x47))))) (or (or (and (not (= x49 x144)) (and (and (and (not (= x49 x129)) (not (= x73 x49))) (not (= x49 x47))) (not (= x49 x113)))) (or (and (not (= x144 x88)) (and (and (not (= x47 x88)) (and (not (= x73 x88)) (not (= x88 x129)))) (not (= x113 x88)))) (and (and (and (not (= x7 x47)) (and (not (= x7 x129)) (not (= x73 x7)))) (not (= x113 x7))) (not (= x7 x144))))) (and (not (= x152 x144)) (and (not (= x113 x152)) (and (not (= x152 x47)) (and (not (= x129 x152)) (not (= x152 x73))))))))))
(assert (let ((x129 (x57 x7 x7)) (x155 (x57 x152 x49)) (x68 (x57 x49 x49)) (x24 (x57 x61 x61)) (x142 (x57 x152 x88)) (x158 (x57 x88 x152)) (x113 (x57 x88 x88)) (x73 (x57 x88 x7)) (x133 (x57 x49 x152)) (x144 (x57 x49 x7)) (x54 (x57 x152 x152)) (x117 (x57 x7 x61)) (x28 (x57 x49 x88)) (x12 (x57 x152 x61)) (x122 (x57 x152 x7)) (x17 (x57 x61 x88)) (x132 (x57 x61 x152)) (x109 (x57 x7 x152)) (x47 (x57 x7 x88)) (x14 (x57 x88 x49)) (x85 (x57 x88 x61)) (x55 (x57 x61 x7)) (x11 (x57 x49 x61)) (x82 (x57 x61 x49)) (x124 (x57 x7 x49))) (and (and (and (or (or (or (not (= x68 x68)) (or (not (= x124 x144)) (not (= x28 x14)))) (not (= x133 x155))) (not (= x82 x11))) (and (or (not (= x55 x117)) (or (not (= x109 x122)) (or (or (not (= x129 x129)) (not (= x73 x47))) (not (= x124 x144))))) (or (or (not (= x158 x142)) (or (or (not (= x113 x113)) (not (= x73 x47))) (not (= x14 x28)))) (not (= x17 x85))))) (or (or (or (or (not (= x109 x122)) (not (= x142 x158))) (not (= x155 x133))) (not (= x54 x54))) (not (= x132 x12)))) (or (not (= x24 x24)) (or (or (not (= x82 x11)) (or (not (= x85 x17)) (not (= x55 x117)))) (not (= x132 x12)))))))
(assert (and (not (= (x57 x61 x61) x61)) (and (and (not (= (x57 x49 x49) x49)) (and (not (= (x57 x88 x88) x88)) (not (= x7 (x57 x7 x7))))) (not (= x152 (x57 x152 x152))))))
(assert (let ((x12 (x57 x88 x61)) (x118 (x57 x49 x152)) (x124 (x57 x49 x7)) (x101 (x57 x152 x61)) (x103 (x57 x49 x88)) (x108 (x57 x61 x49)) (x8 (x57 x152 x88)) (x122 (x57 x61 x7)) (x133 (x57 x7 x49)) (x120 (x57 x49 x49)) (x45 (x57 x152 x152)) (x73 (x57 x7 x7)) (x54 (x57 x7 x152)) (x113 (x57 x88 x7)) (x96 (x57 x61 x152)) (x85 (x57 x88 x88)) (x55 (x57 x7 x61)) (x11 (x57 x88 x49)) (x145 (x57 x49 x61)) (x132 (x57 x88 x152)) (x80 (x57 x152 x49)) (x149 (x57 x61 x61)) (x130 (x57 x61 x88)) (x14 (x57 x152 x7)) (x158 (x57 x7 x88))) (let ((x84 (= x124 x49)) (x3 (= x152 x130)) (x13 (= x7 x133)) (x2 (= x101 x152)) (x131 (= x149 x49)) (x52 (= x14 x61)) (x68 (= x122 x7)) (x70 (= x7 x55)) (x58 (= x49 x145)) (x36 (= x7 x132)) (x4 (= x133 x61)) (x116 (= x61 x54)) (x40 (= x7 x145)) (x15 (= x118 x49)) (x136 (= x88 x55)) (x105 (= x61 x101)) (x35 (= x61 x11)) (x50 (= x152 x80)) (x111 (= x88 x133)) (x148 (= x61 x130)) (x75 (= x88 x103)) (x95 (= x96 x7)) (x125 (= x7 x11)) (x33 (= x55 x152)) (x26 (= x145 x61)) (x76 (= x152 x11)) (x140 (= x145 x88)) (x43 (= x88 x54)) (x99 (= x49 x85)) (x115 (= x88 x96)) (x17 (= x85 x7)) (x150 (= x101 x7)) (x139 (= x152 x96)) (x34 (= x120 x61)) (x102 (= x14 x152)) (x62 (= x124 x61)) (x53 (= x55 x49)) (x104 (= x49 x96)) (x97 (= x8 x7)) (x91 (= x73 x61)) (x27 (= x101 x49)) (x100 (= x152 x113)) (x94 (= x88 x14)) (x6 (= x61 x158)) (x138 (= x152 x45)) (x106 (= x8 x49)) (x39 (= x152 x149)) (x157 (= x49 x73)) (x147 (= x152 x12)) (x10 (= x49 x132)) (x1 (= x7 x108)) (x151 (= x11 x88)) (x66 (= x45 x7)) (x78 (= x54 x49)) (x109 (= x73 x88)) (x42 (= x158 x49)) (x9 (= x61 x55)) (x48 (= x61 x12)) (x89 (= x103 x152)) (x128 (= x152 x108)) (x44 (= x49 x113)) (x127 (= x103 x49)) (x24 (= x124 x88)) (x119 (= x7 x118)) (x64 (= x88 x80)) (x20 (= x152 x8)) (x60 (= x152 x73)) (x155 (= x88 x158)) (x141 (= x118 x88)) (x31 (= x120 x152)) (x126 (= x54 x7)) (x114 (= x88 x130)) (x32 (= x7 x103)) (x123 (= x80 x7)) (x83 (= x118 x61)) (x51 (= x49 x45)) (x28 (= x7 x14)) (x41 (= x12 x7)) (x87 (= x88 x45)) (x159 (= x152 x124)) (x71 (= x152 x133)) (x93 (= x88 x108)) (x18 (= x88 x12)) (x144 (= x7 x124)) (x56 (= x149 x61)) (x135 (= x120 x7)) (x156 (= x14 x49)) (x82 (= x88 x85)) (x79 (= x149 x7)) (x92 (= x158 x152)) (x29 (= x88 x101)) (x112 (= x118 x152)) (x86 (= x61 x96)) (x142 (= x158 x7)) (x107 (= x49 x130)) (x134 (= x108 x49)) (x137 (= x149 x88)) (x25 (= x61 x45)) (x110 (= x49 x133)) (x5 (= x122 x61)) (x117 (= x113 x88)) (x153 (= x122 x49)) (x46 (= x108 x61)) (x47 (= x113 x7)) (x143 (= x130 x7)) (x154 (= x61 x8)) (x65 (= x145 x152)) (x67 (= x122 x88)) (x23 (= x85 x61)) (x38 (= x88 x132)) (x21 (= x122 x152)) (x146 (= x152 x54)) (x22 (= x12 x49)) (x19 (= x132 x152)) (x77 (= x80 x61)) (x59 (= x61 x113)) (x16 (= x8 x88)) (x90 (= x61 x132)) (x63 (= x49 x80)) (x37 (= x49 x120)) (x30 (= x11 x49)) (x74 (= x120 x88)) (x72 (= x103 x61)) (x129 (= x73 x7)) (x98 (= x152 x85))) (and (or (or (or (or (and (not x131) x46) (or (and x5 (not x79)) (and (not x137) x148))) (and (not x39) x86)) (and (not x56) x56)) (or (or (or (or (and (not x9) x9) (or (and (not x33) x116) (or (and x4 (not x53)) (or (and x6 (not x136)) (and x91 (not x70)))))) (or (or (and (not x147) x90) (or (and x35 (not x22)) (or (and x59 (not x41)) (and x23 (not x18))))) (and x48 (not x48)))) (or (and x26 (not x26)) (or (or (and (not x58) x34) (or (and x62 (not x40)) (and x72 (not x140)))) (and x83 (not x65))))) (or (and (not x105) x105) (or (or (and x77 (not x27)) (or (and (not x29) x154) (and x52 (not x150)))) (and x25 (not x2)))))) (and (or (or (or (and (not x25) x2) (or (or (or (and (not x66) x102) (and x20 (not x87))) (and x50 (not x51))) (and x138 (not x138)))) (or (or (or (and x33 (not x116)) (or (or (or (and x60 (not x126)) (and (not x43) x92)) (and (not x78) x71)) (and x146 (not x146)))) (or (and (not x90) x147) (or (and x19 (not x19)) (or (or (and (not x36) x100) (and x98 (not x38))) (and x76 (not x10)))))) (or (and x65 (not x83)) (or (and (not x112) x112) (or (and (not x15) x31) (or (and x159 (not x119)) (and (not x141) x89))))))) (or (and x39 (not x86)) (or (or (and (not x104) x128) (or (and x21 (not x95)) (and x3 (not x115)))) (and x139 (not x139))))) (and (and (or (or (or (and x29 (not x154)) (or (or (and (not x106) x64) (or (and x94 (not x97)) (and x16 (not x16)))) (and (not x20) x87))) (or (or (or (and x18 (not x23)) (or (or (or (and x82 (not x82)) (and (not x17) x117)) (and (not x99) x151)) (and x38 (not x98)))) (or (or (or (and (not x42) x111) (or (and x109 (not x142)) (and x155 (not x155)))) (and x43 (not x92))) (and x136 (not x6)))) (or (or (or (or (and x75 (not x75)) (and x24 (not x32))) (and x74 (not x127))) (and x141 (not x89))) (and (not x72) x140)))) (or (or (or (or (and x114 (not x114)) (and x67 (not x143))) (and (not x107) x93)) (and (not x3) x115)) (and (not x148) x137))) (or (or (or (or (or (and x68 (not x68)) (and x143 (not x67))) (and (not x153) x1)) (and (not x21) x95)) (and (not x5) x79)) (or (or (and (not x52) x150) (or (and (not x102) x66) (or (and x123 (not x156)) (or (and x97 (not x94)) (and x28 (not x28)))))) (or (or (or (and (not x159) x119) (or (and (not x84) x135) (or (and x32 (not x24)) (and (not x144) x144)))) (and (not x62) x40)) (or (or (and (not x91) x70) (or (and x126 (not x60)) (or (and (not x157) x13) (or (and (not x129) x129) (and (not x109) x142))))) (or (and x41 (not x59)) (or (or (or (and (not x47) x47) (and (not x117) x17)) (and x125 (not x44))) (and x36 (not x100))))))))) (or (or (or (and (not x128) x104) (or (and (not x134) x134) (or (and x153 (not x1)) (and x107 (not x93))))) (and x131 (not x46))) (or (or (or (and x58 (not x34)) (or (and (not x31) x15) (or (or (and (not x74) x127) (and (not x135) x84)) (and x37 (not x37))))) (or (or (and x22 (not x35)) (or (or (or (and x44 (not x125)) (and x99 (not x151))) (and (not x30) x30)) (and x10 (not x76)))) (or (and (not x4) x53) (or (and (not x71) x78) (or (and (not x110) x110) (or (and (not x13) x157) (and (not x111) x42))))))) (or (or (and x51 (not x50)) (or (and (not x63) x63) (or (and (not x64) x106) (and (not x123) x156)))) (and x27 (not x77)))))))))))
(assert (or (or (and (and (not (= (x57 x152 x152) x152)) (and (and (not (= x88 (x57 x88 x152))) (not (= (x57 x7 x152) x7))) (not (= (x57 x49 x152) x49)))) (not (= (x57 x61 x152) x61))) (or (or (and (and (not (= x152 (x57 x152 x7))) (and (not (= (x57 x49 x7) x49)) (and (not (= x7 (x57 x7 x7))) (not (= (x57 x88 x7) x88))))) (not (= (x57 x61 x7) x61))) (and (and (not (= (x57 x152 x88) x152)) (and (and (not (= x88 (x57 x88 x88))) (not (= x7 (x57 x7 x88)))) (not (= x49 (x57 x49 x88))))) (not (= x61 (x57 x61 x88))))) (and (and (and (and (not (= x7 (x57 x7 x49))) (not (= (x57 x88 x49) x88))) (not (= (x57 x49 x49) x49))) (not (= (x57 x152 x49) x152))) (not (= x61 (x57 x61 x49)))))) (and (and (and (not (= (x57 x49 x61) x49)) (and (not (= x88 (x57 x88 x61))) (not (= (x57 x7 x61) x7)))) (not (= x152 (x57 x152 x61)))) (not (= x61 (x57 x61 x61))))))
(assert (let ((x16 (x57 x61 x7)) (x120 (x57 x88 x7)) (x30 (x57 x61 x49)) (x151 (x57 x49 x61)) (x110 (x57 x49 x49)) (x94 (x57 x7 x152)) (x130 (x57 x49 x88)) (x32 (x57 x7 x7)) (x118 (x57 x7 x49)) (x114 (x57 x88 x152)) (x123 (x57 x152 x152)) (x96 (x57 x88 x61)) (x145 (x57 x49 x7)) (x143 (x57 x88 x49)) (x8 (x57 x7 x61)) (x75 (x57 x7 x88)) (x97 (x57 x152 x7)) (x63 (x57 x61 x152)) (x125 (x57 x49 x152)) (x108 (x57 x152 x88)) (x101 (x57 x88 x88)) (x149 (x57 x61 x88)) (x64 (x57 x152 x61)) (x99 (x57 x152 x49)) (x43 (x57 x61 x61))) (let ((x36 (= x101 x49)) (x72 (= x32 x61)) (x17 (= x149 x7)) (x76 (= x49 x130)) (x25 (= x99 x61)) (x77 (= x108 x61)) (x34 (= x75 x61)) (x5 (= x61 x16)) (x66 (= x49 x8)) (x38 (= x118 x49)) (x100 (= x75 x49)) (x71 (= x88 x43)) (x44 (= x110 x88)) (x67 (= x101 x88)) (x112 (= x123 x49)) (x136 (= x152 x110)) (x28 (= x130 x7)) (x52 (= x143 x61)) (x4 (= x97 x152)) (x65 (= x61 x118)) (x137 (= x96 x61)) (x127 (= x88 x108)) (x147 (= x152 x151)) (x89 (= x108 x49)) (x56 (= x61 x43)) (x59 (= x152 x125)) (x105 (= x123 x61)) (x68 (= x7 x110)) (x20 (= x149 x49)) (x148 (= x149 x61)) (x48 (= x63 x152)) (x102 (= x49 x16)) (x122 (= x97 x7)) (x146 (= x120 x49)) (x153 (= x88 x16)) (x156 (= x125 x88)) (x22 (= x152 x96)) (x132 (= x63 x7)) (x23 (= x152 x16)) (x50 (= x30 x49)) (x140 (= x61 x120)) (x150 (= x61 x110)) (x31 (= x49 x99)) (x95 (= x49 x43)) (x154 (= x97 x61)) (x73 (= x120 x7)) (x135 (= x88 x94)) (x39 (= x64 x61)) (x79 (= x8 x61)) (x74 (= x114 x88)) (x19 (= x49 x110)) (x10 (= x143 x49)) (x157 (= x88 x145)) (x53 (= x94 x152)) (x60 (= x88 x151)) (x117 (= x8 x7)) (x37 (= x88 x99)) (x21 (= x49 x64)) (x91 (= x152 x118)) (x78 (= x49 x32)) (x87 (= x49 x96)) (x42 (= x88 x130)) (x33 (= x114 x152)) (x144 (= x7 x145)) (x124 (= x7 x118)) (x142 (= x108 x7)) (x6 (= x152 x143)) (x86 (= x63 x61)) (x55 (= x7 x16)) (x41 (= x152 x123)) (x92 (= x64 x88)) (x46 (= x61 x30)) (x29 (= x94 x61)) (x158 (= x114 x7)) (x1 (= x88 x8)) (x141 (= x114 x49)) (x13 (= x118 x88)) (x90 (= x152 x30)) (x15 (= x125 x49)) (x134 (= x30 x88)) (x47 (= x75 x7)) (x111 (= x143 x88)) (x11 (= x7 x151)) (x85 (= x96 x7)) (x93 (= x88 x96)) (x113 (= x101 x7)) (x51 (= x151 x49)) (x24 (= x7 x43)) (x129 (= x32 x7)) (x83 (= x145 x61)) (x128 (= x152 x75)) (x104 (= x101 x152)) (x18 (= x152 x8)) (x62 (= x64 x152)) (x115 (= x152 x120)) (x14 (= x7 x143)) (x80 (= x88 x120)) (x126 (= x63 x88)) (x27 (= x61 x114)) (x98 (= x145 x49)) (x103 (= x32 x88)) (x58 (= x61 x101)) (x12 (= x7 x64)) (x131 (= x61 x151)) (x133 (= x7 x125)) (x106 (= x123 x88)) (x82 (= x7 x30)) (x9 (= x152 x99)) (x45 (= x88 x75)) (x159 (= x97 x49)) (x2 (= x61 x125)) (x40 (= x152 x43)) (x3 (= x32 x152)) (x70 (= x152 x130)) (x26 (= x130 x61)) (x109 (= x94 x7)) (x54 (= x7 x123)) (x119 (= x49 x94)) (x155 (= x99 x7)) (x107 (= x88 x149)) (x139 (= x145 x152)) (x84 (= x88 x97)) (x138 (= x49 x63)) (x116 (= x108 x152)) (x35 (= x149 x152))) (and (and (or (or (and x40 x40) (or (or (or (and x35 x22) (and x23 x18)) (and x90 x147)) (and x48 x62))) (or (or (or (or (or (or (and x6 x70) (or (and x128 x115) (and x104 x104))) (and x116 x33)) (and x22 x35)) (or (or (or (or (and x3 x3) (and x115 x128)) (and x91 x139)) (and x4 x53)) (and x23 x18))) (or (or (or (and x136 x136) (or (and x91 x139) (and x6 x70))) (and x59 x9)) (and x90 x147))) (or (and x48 x62) (or (and x41 x41) (or (or (and x33 x116) (and x4 x53)) (and x9 x59)))))) (and (and (or (or (or (or (or (or (and x84 x135) (and x127 x74)) (and x37 x156)) (and x106 x106)) (and x126 x92)) (or (or (or (or (or (and x111 x42) (or (and x67 x67) (and x45 x80))) (and x127 x74)) (and x93 x107)) (or (or (or (or (and x80 x45) (and x103 x103)) (and x157 x13)) (and x135 x84)) (and x153 x1))) (or (or (and x37 x156) (or (or (and x157 x13) (and x111 x42)) (and x44 x44))) (and x60 x134)))) (or (and x71 x71) (or (and x126 x92) (or (or (and x107 x93) (and x153 x1)) (and x60 x134))))) (or (or (and x24 x24) (or (and x132 x12) (or (or (and x117 x55) (and x85 x17)) (and x11 x82)))) (or (or (and x132 x12) (or (and x54 x54) (or (and x155 x133) (or (and x142 x158) (and x109 x122))))) (or (or (or (and x117 x55) (or (or (and x124 x144) (or (and x73 x47) (and x129 x129))) (and x122 x109))) (or (and x85 x17) (or (and x158 x142) (or (or (and x73 x47) (and x113 x113)) (and x28 x14))))) (or (or (or (and x68 x68) (or (and x124 x144) (and x28 x14))) (and x133 x155)) (and x11 x82)))))) (or (or (or (and x138 x21) (or (and x112 x112) (or (or (and x89 x141) (and x119 x159)) (and x31 x15)))) (or (or (or (or (or (or (and x100 x146) (and x78 x78)) (and x38 x98)) (and x119 x159)) (and x102 x66)) (or (and x87 x20) (or (and x141 x89) (or (and x10 x76) (or (and x36 x36) (and x100 x146)))))) (or (and x51 x50) (or (or (or (and x10 x76) (and x98 x38)) (and x19 x19)) (and x15 x31))))) (or (and x95 x95) (or (or (or (and x66 x102) (and x20 x87)) (and x51 x50)) (and x138 x21)))))) (or (or (or (or (or (or (or (or (and x140 x34) (and x58 x58)) (and x26 x52)) (and x27 x77)) (and x148 x137)) (or (and x79 x5) (or (and x154 x29) (or (or (and x140 x34) (and x72 x72)) (and x65 x83))))) (or (and x46 x131) (or (and x2 x25) (or (or (and x65 x83) (and x26 x52)) (and x150 x150))))) (or (or (or (and x2 x25) (or (and x29 x154) (and x77 x27))) (and x105 x105)) (and x86 x39))) (or (and x56 x56) (or (and x86 x39) (or (or (and x5 x79) (and x137 x148)) (and x131 x46)))))))))
(assert (and (and (or (or (not (= x152 (x57 x152 (x57 x152 x152)))) (or (not (= (x57 x152 (x57 x152 x49)) x49)) (or (not (= (x57 x152 (x57 x152 x7)) x7)) (not (= x88 (x57 x152 (x57 x152 x88))))))) (not (= (x57 x152 (x57 x152 x61)) x61))) (and (or (or (or (not (= (x57 x49 (x57 x49 x49)) x49)) (or (not (= x7 (x57 x49 (x57 x49 x7)))) (not (= x88 (x57 x49 (x57 x49 x88)))))) (not (= x152 (x57 x49 (x57 x49 x152))))) (not (= x61 (x57 x49 (x57 x49 x61))))) (and (or (not (= x61 (x57 x7 (x57 x7 x61)))) (or (or (not (= (x57 x7 (x57 x7 x49)) x49)) (or (not (= (x57 x7 (x57 x7 x7)) x7)) (not (= (x57 x7 (x57 x7 x88)) x88)))) (not (= (x57 x7 (x57 x7 x152)) x152)))) (or (not (= x61 (x57 x88 (x57 x88 x61)))) (or (or (or (not (= x88 (x57 x88 (x57 x88 x88)))) (not (= (x57 x88 (x57 x88 x7)) x7))) (not (= x49 (x57 x88 (x57 x88 x49))))) (not (= x152 (x57 x88 (x57 x88 x152))))))))) (or (not (= x61 (x57 x61 (x57 x61 x61)))) (or (or (not (= x49 (x57 x61 (x57 x61 x49)))) (or (not (= x7 (x57 x61 (x57 x61 x7)))) (not (= x88 (x57 x61 (x57 x61 x88)))))) (not (= (x57 x61 (x57 x61 x152)) x152))))))
(assert (or (or (= x152 (x57 (x57 x152 x152) x152)) (or (= (x57 (x57 x49 x49) x49) x49) (or (= (x57 (x57 x88 x88) x88) x88) (= x7 (x57 (x57 x7 x7) x7))))) (= x61 (x57 (x57 x61 x61) x61))))
(assert (let ((x144 (x57 x61 x61)) (x47 (x57 x49 x49)) (x73 (x57 x88 x88)) (x113 (x57 x152 x152)) (x129 (x57 x7 x7))) (and (and (not (= x152 (x57 x113 x113))) (and (and (not (= x88 (x57 x73 x73))) (not (= x7 (x57 x129 x129)))) (not (= (x57 x47 x47) x49)))) (not (= (x57 x144 x144) x61)))))
(assert (let ((x11 (x57 x88 x61)) (x103 (x57 x61 x88)) (x10 (x57 x61 x152)) (x18 (x57 x61 x61)) (x144 (x57 x7 x152)) (x124 (x57 x7 x61)) (x96 (x57 x49 x49)) (x68 (x57 x49 x7)) (x47 (x57 x7 x88)) (x85 (x57 x88 x49)) (x73 (x57 x7 x7)) (x82 (x57 x88 x152)) (x113 (x57 x7 x49)) (x122 (x57 x152 x7)) (x146 (x57 x152 x152)) (x100 (x57 x152 x61)) (x110 (x57 x152 x49)) (x44 (x57 x61 x49)) (x157 (x57 x49 x61)) (x14 (x57 x88 x7)) (x109 (x57 x61 x7)) (x32 (x57 x152 x88)) (x17 (x57 x88 x88)) (x149 (x57 x49 x152)) (x24 (x57 x49 x88))) (let ((x97 (= x152 x17)) (x128 (= x61 x149)) (x156 (= x152 x96)) (x16 (= x61 x47)) (x54 (= x47 x7)) (x5 (= x109 x61)) (x58 (= x11 x49)) (x143 (= x7 x85)) (x125 (= x68 x49)) (x107 (= x32 x7)) (x27 (= x11 x152)) (x48 (= x88 x18)) (x116 (= x7 x100)) (x83 (= x157 x49)) (x43 (= x122 x88)) (x37 (= x152 x85)) (x50 (= x152 x149)) (x154 (= x152 x44)) (x104 (= x61 x146)) (x65 (= x49 x100)) (x76 (= x88 x146)) (x111 (= x88 x96)) (x115 (= x61 x82)) (x25 (= x152 x157)) (x42 (= x85 x88)) (x38 (= x149 x88)) (x23 (= x88 x10)) (x22 (= x88 x11)) (x141 (= x82 x49)) (x12 (= x17 x88)) (x134 (= x144 x7)) (x53 (= x157 x7)) (x118 (= x49 x17)) (x87 (= x82 x152)) (x102 (= x32 x152)) (x77 (= x124 x152)) (x106 (= x24 x61)) (x93 (= x7 x110)) (x67 (= x113 x7)) (x41 (= x88 x44)) (x126 (= x149 x7)) (x147 (= x100 x88)) (x129 (= x7 x73)) (x59 (= x103 x88)) (x39 (= x100 x61)) (x35 (= x124 x88)) (x33 (= x7 x18)) (x45 (= x7 x68)) (x127 (= x152 x24)) (x79 (= x103 x61)) (x63 (= x85 x61)) (x90 (= x88 x157)) (x151 (= x49 x113)) (x153 (= x96 x61)) (x119 (= x49 x110)) (x15 (= x146 x49)) (x51 (= x152 x146)) (x133 (= x14 x7)) (x20 (= x152 x144)) (x31 (= x149 x49)) (x55 (= x17 x7)) (x70 (= x44 x7)) (x30 (= x85 x49)) (x9 (= x109 x88)) (x101 (= x24 x7)) (x120 (= x47 x49)) (x92 (= x7 x146)) (x159 (= x32 x49)) (x142 (= x73 x49)) (x131 (= x11 x61)) (x64 (= x113 x61)) (x105 (= x152 x18)) (x158 (= x152 x73)) (x89 (= x144 x49)) (x139 (= x7 x109)) (x112 (= x122 x152)) (x40 (= x49 x103)) (x6 (= x10 x7)) (x132 (= x88 x47)) (x60 (= x7 x82)) (x71 (= x32 x88)) (x66 (= x152 x110)) (x75 (= x49 x14)) (x19 (= x49 x122)) (x150 (= x103 x152)) (x95 (= x110 x61)) (x155 (= x61 x73)) (x91 (= x7 x103)) (x138 (= x61 x122)) (x140 (= x10 x49)) (x86 (= x61 x157)) (x52 (= x152 x109)) (x108 (= x88 x24)) (x34 (= x49 x124)) (x114 (= x68 x88)) (x130 (= x96 x7)) (x46 (= x124 x61)) (x13 (= x113 x88)) (x135 (= x68 x152)) (x28 (= x88 x73)) (x4 (= x11 x7)) (x74 (= x113 x152)) (x8 (= x61 x14)) (x136 (= x7 x124)) (x84 (= x96 x49)) (x21 (= x61 x32)) (x78 (= x88 x110)) (x36 (= x144 x88)) (x29 (= x10 x152)) (x56 (= x61 x18)) (x137 (= x61 x10)) (x26 (= x18 x49)) (x145 (= x152 x14)) (x62 (= x49 x109)) (x72 (= x49 x44)) (x2 (= x152 x100)) (x117 (= x88 x14)) (x99 (= x24 x49)) (x80 (= x17 x61)) (x148 (= x61 x44)) (x123 (= x68 x61)) (x1 (= x7 x122)) (x3 (= x144 x61)) (x98 (= x82 x88)) (x94 (= x47 x152))) (and (and (and (and (and (and (and (or (or (or x135 (or x145 x158)) x112) x52) (or (or (or x74 (or x94 x158)) x20) x77)) (and (and (or (or x89 (or (or x120 x142) x151)) x34) (or (or x19 (or (or x142 x75) x125)) x62)) (and (and (or x35 (or x36 (or (or x28 x132) x13))) (or (or (or (or x28 x117) x114) x43) x9)) (and (or (or x1 (or x45 (or x133 x129))) x139) (or (or x134 (or (or x54 x129) x67)) x136))))) (and (or (or (or x64 (or x155 x16)) x3) x46) (or (or x138 (or (or x8 x155) x123)) x5))) (and (and (or (or x115 (or x63 (or x80 x8))) x131) (or (or (or (or x16 x80) x106) x21) x79)) (and (and (and (or (or x159 (or (or x118 x120) x99)) x40) (or (or (or (or x118 x75) x30) x141) x58)) (and (and (or (or (or x101 (or x54 x55)) x107) x91) (or (or (or x143 (or x133 x55)) x60) x4)) (and (or x22 (or x98 (or x42 (or x12 x117)))) (or x59 (or (or x108 (or x12 x132)) x71))))) (and (or x27 (or x87 (or (or x145 x97) x37))) (or x150 (or (or (or x97 x94) x127) x102)))))) (and (and (or (or (or x153 (or x63 x64)) x95) x148) (or (or x128 (or (or x106 x123) x153)) x86)) (and (and (and (and (or (or x78 (or (or x13 x42) x111)) x41) (or (or (or x111 (or x114 x108)) x38) x90)) (and (or x70 (or (or (or x67 x143) x130) x93)) (or (or (or (or x101 x45) x130) x126) x53))) (and (or x83 (or (or (or x99 x125) x84) x31)) (or (or x119 (or (or x151 x30) x84)) x72))) (and (or (or (or (or x74 x37) x156) x66) x154) (or (or (or x156 (or x135 x127)) x50) x25))))) (and (and (or (or (or x95 (or x21 x138)) x104) x39) (or x137 (or x104 (or (or x3 x115) x128)))) (and (and (and (or x65 (or x15 (or x119 (or x159 x19)))) (or (or (or x31 (or x89 x141)) x15) x140)) (and (and (or x147 (or x76 (or (or x43 x71) x78))) (or (or x76 (or x38 (or x98 x36))) x23)) (and (or x116 (or x92 (or x93 (or x1 x107)))) (or x6 (or (or x126 (or x134 x60)) x92))))) (and (or (or (or x66 (or x102 x112)) x51) x2) (or x29 (or x51 (or x50 (or x20 x87)))))))) (and (and (or x56 (or (or (or x131 x46) x86) x39)) (or x56 (or x137 (or (or x5 x79) x148)))) (and (and (or (or (or (or x52 x150) x154) x29) x105) (or x105 (or x2 (or (or x77 x27) x25)))) (and (and (or x26 (or (or (or x58 x34) x83) x65)) (or (or (or (or x40 x62) x72) x140) x26)) (and (and (or x33 (or (or (or x136 x4) x53) x116)) (or x33 (or (or x70 (or x91 x139)) x6))) (and (or (or (or (or x22 x35) x90) x147) x48) (or (or x23 (or x41 (or x9 x59))) x48))))))))))
(assert (let ((x85 (x57 x61 x152)) (x155 (x57 x152 x49)) (x28 (x57 x88 x88)) (x158 (x57 x49 x49)) (x14 (x57 x49 x88)) (x133 (x57 x61 x49)) (x113 (x57 x152 x7)) (x82 (x57 x7 x61)) (x109 (x57 x7 x49)) (x73 (x57 x88 x7)) (x12 (x57 x152 x61)) (x132 (x57 x49 x61)) (x68 (x57 x152 x88)) (x142 (x57 x88 x49)) (x144 (x57 x61 x7)) (x55 (x57 x88 x152)) (x124 (x57 x7 x88)) (x11 (x57 x88 x61)) (x17 (x57 x152 x152)) (x54 (x57 x7 x152)) (x129 (x57 x7 x7)) (x117 (x57 x49 x152)) (x122 (x57 x61 x88)) (x47 (x57 x49 x7)) (x24 (x57 x61 x61))) (and (and (and (not (= x24 x85)) (and (and (not (= x133 x85)) (and (and (not (= x85 x122)) (and (and (not (= x24 x144)) (and (and (not (= x122 x144)) (not (= x144 x133))) (not (= x85 x144)))) (not (= x122 x133)))) (not (= x122 x24)))) (not (= x24 x133)))) (and (and (and (and (not (= x158 x132)) (and (not (= x158 x117)) (and (not (= x14 x132)) (and (and (not (= x14 x158)) (and (and (and (not (= x47 x14)) (not (= x158 x47))) (not (= x47 x117))) (not (= x132 x47)))) (not (= x117 x14)))))) (not (= x117 x132))) (and (and (not (= x82 x54)) (and (and (and (and (and (and (not (= x82 x129)) (and (not (= x54 x129)) (and (not (= x129 x109)) (not (= x129 x124))))) (not (= x124 x109))) (not (= x124 x54))) (not (= x82 x124))) (not (= x109 x54))) (not (= x82 x109)))) (and (not (= x55 x11)) (and (and (not (= x142 x55)) (and (not (= x28 x11)) (and (not (= x55 x28)) (and (and (and (and (not (= x28 x73)) (not (= x73 x142))) (not (= x73 x55))) (not (= x11 x73))) (not (= x142 x28)))))) (not (= x142 x11)))))) (and (and (not (= x155 x12)) (and (not (= x17 x155)) (and (and (not (= x17 x68)) (and (not (= x68 x155)) (and (not (= x12 x113)) (and (and (not (= x68 x113)) (not (= x113 x155))) (not (= x113 x17)))))) (not (= x68 x12))))) (not (= x17 x12))))) (and (and (and (and (and (and (and (not (= x142 x133)) (and (not (= x142 x155)) (and (not (= x158 x142)) (and (and (not (= x109 x155)) (and (not (= x158 x109)) (not (= x109 x142)))) (not (= x109 x133)))))) (not (= x158 x155))) (not (= x158 x133))) (not (= x133 x155))) (and (and (and (not (= x144 x47)) (and (not (= x113 x47)) (and (not (= x144 x73)) (and (and (and (not (= x144 x129)) (and (and (not (= x47 x129)) (not (= x129 x73))) (not (= x129 x113)))) (not (= x73 x47))) (not (= x73 x113)))))) (not (= x144 x113))) (and (and (not (= x122 x14)) (and (and (and (not (= x68 x28)) (and (and (not (= x122 x124)) (and (and (not (= x124 x14)) (not (= x124 x28))) (not (= x124 x68)))) (not (= x14 x28)))) (not (= x122 x28))) (not (= x68 x14)))) (not (= x122 x68))))) (and (and (and (and (and (and (and (and (and (not (= x54 x117)) (not (= x54 x55))) (not (= x17 x54))) (not (= x85 x54))) (not (= x55 x117))) (not (= x17 x55))) (not (= x85 x55))) (not (= x17 x117))) (not (= x117 x85))) (not (= x17 x85)))) (and (and (and (and (not (= x24 x11)) (and (and (and (not (= x82 x24)) (and (and (not (= x82 x11)) (not (= x132 x82))) (not (= x82 x12)))) (not (= x132 x11))) (not (= x12 x11)))) (not (= x132 x12))) (not (= x132 x24))) (not (= x12 x24)))))))
(assert (or (and (and (and (not (= x49 (x57 x61 x49))) (and (not (= (x57 x61 x7) x7)) (not (= x88 (x57 x61 x88))))) (not (= x152 (x57 x61 x152)))) (not (= (x57 x61 x61) x61))) (or (and (not (= (x57 x152 x61) x61)) (and (and (not (= (x57 x152 x49) x49)) (and (not (= x7 (x57 x152 x7))) (not (= x88 (x57 x152 x88))))) (not (= x152 (x57 x152 x152))))) (or (and (not (= (x57 x49 x61) x61)) (and (and (not (= (x57 x49 x49) x49)) (and (not (= x7 (x57 x49 x7))) (not (= x88 (x57 x49 x88))))) (not (= x152 (x57 x49 x152))))) (or (and (not (= (x57 x88 x61) x61)) (and (and (and (not (= (x57 x88 x88) x88)) (not (= x7 (x57 x88 x7)))) (not (= x49 (x57 x88 x49)))) (not (= x152 (x57 x88 x152))))) (and (not (= (x57 x7 x61) x61)) (and (not (= (x57 x7 x152) x152)) (and (and (not (= (x57 x7 x7) x7)) (not (= x88 (x57 x7 x88)))) (not (= (x57 x7 x49) x49))))))))))
(check-sat)
(exit)
